(set-info :smt-lib-version 2.6)
(set-info :category "crafted")
(set-logic QF_FFA)
(define-sort FF0 () (_ FiniteField 52435875175126190479447740508185965837690552500527637822603658699938581184513))
(declare-fun b () Bool)
(declare-fun a () Bool)
(declare-fun return_n0 () FF0)
(declare-fun mul_n14 () FF0)
(declare-fun mul_n17 () FF0)
(declare-fun mul_n16 () FF0)
(declare-fun mul_n23 () FF0)
(declare-fun mul_n21 () FF0)
(declare-fun mul_n22 () FF0)
(declare-fun mul_n10 () FF0)
(declare-fun mul_n12 () FF0)
(declare-fun a_n2 () FF0)
(declare-fun mul_n20 () FF0)
(declare-fun mul_n18 () FF0)
(declare-fun mul_n19 () FF0)
(declare-fun mul_n9 () FF0)
(declare-fun mul_n8 () FF0)
(declare-fun mul_n15 () FF0)
(declare-fun mul_n3 () FF0)
(declare-fun b_n1 () FF0)
(declare-fun mul_n11 () FF0)
(declare-fun mul_n13 () FF0)
(declare-fun mul_n7 () FF0)
(declare-fun mul_n6 () FF0)
(declare-fun mul_n5 () FF0)
(declare-fun mul_n4 () FF0)
(assert 
  (let ((let0 b))
  (let ((let1 a))
  (let ((let2 (ite let0 let1 let0)))
  (let ((let3 (and let0 let2 let1 let1 let1 let0)))
  (let ((let4 (ite let2 let2 let3)))
  (let ((let5 (=> let4 let3)))
  (let ((let6 (= let3 let4)))
  (let ((let7 (=> let6 let5)))
  (let ((let8 (not let5)))
  (let ((let9 (=> let8 let7)))
  (let ((let10 (or let9 let4)))
  (let ((let11 (and let6 let2)))
  (let ((let12 (=> let11 let7)))
  (let ((let13 (= let12 let10)))
  (let ((let14 (ite let12 let8 let5)))
  (let ((let15 (or let4 let7 let14 let1)))
  (let ((let16 (ite let7 let5 let12)))
  (let ((let17 (and let16 let15 let13)))
  (let ((let18 return_n0))
  (let ((let19 (as ff1 FF0)))
  (let ((let20 (= let19 let18)))
  (let ((let21 (= let20 let17)))
  (let ((let22 (as ff0 FF0)))
  (let ((let23 (= let22 let18)))
  (let ((let24 (or let20 let23)))
  (let ((let25 (and let24 let21)))
  (let ((let26 (as ff52435875175126190479447740508185965837690552500527637822603658699938581184512 FF0)))
  (let ((let27 mul_n14))
  (let ((let28 mul_n17))
  (let ((let29 mul_n16))
  (let ((let30 (ff.add let29 let28 let27 let26)))
  (let ((let31 mul_n23))
  (let ((let32 (ff.mul let31 let30)))
  (let ((let33 (= let32 let18)))
  (let ((let34 mul_n21))
  (let ((let35 (ff.mul let34 let26)))
  (let ((let36 (ff.add let35 let19)))
  (let ((let37 mul_n22))
  (let ((let38 (ff.mul let29 let26)))
  (let ((let39 (ff.add let38 let37 let19)))
  (let ((let40 (ff.mul let39 let36)))
  (let ((let41 (= let40 let31)))
  (let ((let42 mul_n10))
  (let ((let43 (ff.mul let42 let26)))
  (let ((let44 (ff.add let29 let43)))
  (let ((let45 mul_n12))
  (let ((let46 (ff.mul let45 let26)))
  (let ((let47 (ff.add let46 let19)))
  (let ((let48 (ff.mul let47 let44)))
  (let ((let49 (= let48 let37)))
  (let ((let50 a_n2))
  (let ((let51 (ff.mul let50 let26)))
  (let ((let52 (ff.add let51 let19)))
  (let ((let53 mul_n20))
  (let ((let54 (ff.mul let53 let52)))
  (let ((let55 (= let54 let34)))
  (let ((let56 mul_n18))
  (let ((let57 (ff.mul let56 let26)))
  (let ((let58 (ff.add let57 let42)))
  (let ((let59 mul_n19))
  (let ((let60 (ff.mul let59 let58)))
  (let ((let61 (= let60 let53)))
  (let ((let62 mul_n9))
  (let ((let63 (ff.mul let62 let26)))
  (let ((let64 mul_n8))
  (let ((let65 (ff.mul let64 let26)))
  (let ((let66 (ff.add let65 let63 let19)))
  (let ((let67 (ff.mul let66 let45)))
  (let ((let68 (= let67 let59)))
  (let ((let69 (as ff2 FF0)))
  (let ((let70 (ff.mul let42 let69)))
  (let ((let71 (ff.add let70 let26)))
  (let ((let72 (ff.add let38 let19)))
  (let ((let73 (ff.mul let72 let71)))
  (let ((let74 (= let73 let56)))
  (let ((let75 (ff.mul let27 let26)))
  (let ((let76 (ff.add let75 let19)))
  (let ((let77 (as ff52435875175126190479447740508185965837690552500527637822603658699938581184511 FF0)))
  (let ((let78 (ff.mul let29 let77)))
  (let ((let79 (ff.add let78 let69)))
  (let ((let80 (ff.mul let79 let76)))
  (let ((let81 (= let80 let28)))
  (let ((let82 mul_n15))
  (let ((let83 (ff.mul let82 let45)))
  (let ((let84 (= let83 let29)))
  (let ((let85 mul_n3))
  (let ((let86 b_n1))
  (let ((let87 (ff.add let86 let85)))
  (let ((let88 mul_n11))
  (let ((let89 (ff.mul let64 let77)))
  (let ((let90 (ff.add let89 let63 let88 let19)))
  (let ((let91 (ff.mul let90 let87)))
  (let ((let92 (= let91 let82)))
  (let ((let93 mul_n13))
  (let ((let94 (ff.mul let93 let66)))
  (let ((let95 (= let94 let27)))
  (let ((let96 (ff.mul let90 let42)))
  (let ((let97 (= let96 let45)))
  (let ((let98 (ff.add let64 let62)))
  (let ((let99 (ff.mul let64 let69)))
  (let ((let100 (ff.mul let99 let98)))
  (let ((let101 (= let100 let88)))
  (let ((let102 (ff.add let65 let19)))
  (let ((let103 (ff.mul let98 let102)))
  (let ((let104 (= let103 let42)))
  (let ((let105 (ff.add let65 let86 let85)))
  (let ((let106 (ff.mul let87 let105)))
  (let ((let107 (= let106 let62)))
  (let ((let108 mul_n7))
  (let ((let109 (ff.mul let108 let86)))
  (let ((let110 (= let109 let64)))
  (let ((let111 mul_n6))
  (let ((let112 (ff.mul let111 let50)))
  (let ((let113 (= let112 let108)))
  (let ((let114 mul_n5))
  (let ((let115 (ff.mul let114 let50)))
  (let ((let116 (= let115 let111)))
  (let ((let117 mul_n4))
  (let ((let118 (ff.mul let117 let50)))
  (let ((let119 (= let118 let114)))
  (let ((let120 (ff.mul let86 let87)))
  (let ((let121 (= let120 let117)))
  (let ((let122 (ff.mul let86 let26)))
  (let ((let123 (ff.add let122 let50)))
  (let ((let124 (ff.mul let86 let123)))
  (let ((let125 (= let124 let85)))
  (let ((let126 (and let125 let121 let119 let116 let113 let110 let107 let104 let101 let97 let95 let92 let84 let81 let74 let68 let61 let55 let49 let41 let33)))
  (let ((let127 (ite let1 let19 let22)))
  (let ((let128 (= let50 let127)))
  (let ((let129 (ite let0 let19 let22)))
  (let ((let130 (= let86 let129)))
  (let ((let131 (and let130 let128)))
  (let ((let132 (and let131 let126)))
  (let ((let133 (=> let132 let25)))
  (let ((let134 (not let133)))
  let134
)))))))))))))))))))))))))))))))))))))))))))))))))))))))))))))))))))))))))))))))))))))))))))))))))))))))))))))))))))))))))))))))))))))))
)
(check-sat)
